c cksystemsgroup.github.io/unicorn
c CNF contains a total of 1684 clauses.
c CNF contains a total of 470 variables.
c CNF clauses cover 1 bad states.
c Variable name mapping (97 names):
c   1: input[bit=0]
c   2: input[bit=0]
c   7: input[bit=1]
c   8: input[bit=1]
c   15: input[bit=2]
c   16: input[bit=2]
c   24: input[bit=3]
c   25: input[bit=3]
c   34: input[bit=4]
c   35: input[bit=4]
c   43: input[bit=5]
c   44: input[bit=5]
c   52: input[bit=6]
c   53: input[bit=6]
c   61: input[bit=7]
c   62: input[bit=7]
c   71: input[bit=8]
c   72: input[bit=8]
c   81: input[bit=9]
c   82: input[bit=9]
c   91: input[bit=10]
c   92: input[bit=10]
c   101: input[bit=11]
c   102: input[bit=11]
c   111: input[bit=12]
c   112: input[bit=12]
c   121: input[bit=13]
c   122: input[bit=13]
c   131: input[bit=14]
c   132: input[bit=14]
c   141: input[bit=15]
c   142: input[bit=15]
c   151: input[bit=16]
c   152: input[bit=16]
c   161: input[bit=17]
c   162: input[bit=17]
c   171: input[bit=18]
c   172: input[bit=18]
c   181: input[bit=19]
c   182: input[bit=19]
c   191: input[bit=20]
c   192: input[bit=20]
c   201: input[bit=21]
c   202: input[bit=21]
c   211: input[bit=22]
c   212: input[bit=22]
c   221: input[bit=23]
c   222: input[bit=23]
c   231: input[bit=24]
c   232: input[bit=24]
c   241: input[bit=25]
c   242: input[bit=25]
c   251: input[bit=26]
c   252: input[bit=26]
c   261: input[bit=27]
c   262: input[bit=27]
c   271: input[bit=28]
c   272: input[bit=28]
c   281: input[bit=29]
c   282: input[bit=29]
c   291: input[bit=30]
c   292: input[bit=30]
c   301: input[bit=31]
c   302: input[bit=31]
c   311: input[bit=32]
c   312: input[bit=32]
c   321: input[bit=33]
c   322: input[bit=33]
c   331: input[bit=34]
c   332: input[bit=34]
c   341: input[bit=35]
c   342: input[bit=35]
c   351: input[bit=36]
c   352: input[bit=36]
c   361: input[bit=37]
c   362: input[bit=37]
c   371: input[bit=38]
c   372: input[bit=38]
c   381: input[bit=39]
c   382: input[bit=39]
c   391: input[bit=40]
c   392: input[bit=40]
c   401: input[bit=41]
c   402: input[bit=41]
c   411: input[bit=42]
c   412: input[bit=42]
c   421: input[bit=43]
c   422: input[bit=43]
c   431: input[bit=44]
c   432: input[bit=44]
c   441: input[bit=45]
c   442: input[bit=45]
c   451: input[bit=46]
c   452: input[bit=46]
c   461: input[bit=47]
c   462: input[bit=47]
c   470: ?
p cnf 470 1684
-2 -3 0
2 3 0
-3 -4 0
3 4 0
1 4 -5 0
1 -4 5 0
-1 4 5 0
-1 -4 -5 0
-5 -6 0
5 6 0
-8 -9 0
8 9 0
-10 0
9 10 3 -11 0
9 10 -3 11 0
9 -10 3 11 0
9 -10 -3 -11 0
-9 10 3 11 0
-9 10 -3 -11 0
-9 -10 3 -11 0
-9 -10 -3 11 0
-1 -4 12 0
1 -12 0
4 -12 0
7 11 12 -13 0
7 11 -12 13 0
7 -11 12 13 0
7 -11 -12 -13 0
-7 11 12 13 0
-7 11 -12 -13 0
-7 -11 12 -13 0
-7 -11 -12 13 0
-6 -13 14 0
6 -14 0
13 -14 0
-16 -17 0
16 17 0
-18 0
9 10 -19 0
9 3 -19 0
-10 -3 19 0
10 3 -19 0
-9 -3 19 0
-9 -10 19 0
17 18 19 -20 0
17 18 -19 20 0
17 -18 19 20 0
17 -18 -19 -20 0
-17 18 19 20 0
-17 18 -19 -20 0
-17 -18 19 -20 0
-17 -18 -19 20 0
7 11 -21 0
7 12 -21 0
-11 -12 21 0
11 12 -21 0
-7 -12 21 0
-7 -11 21 0
15 20 21 -22 0
15 20 -21 22 0
15 -20 21 22 0
15 -20 -21 -22 0
-15 20 21 22 0
-15 20 -21 -22 0
-15 -20 21 -22 0
-15 -20 -21 22 0
-14 -22 23 0
14 -23 0
22 -23 0
-25 -26 0
25 26 0
-27 0
17 18 -28 0
17 19 -28 0
-18 -19 28 0
18 19 -28 0
-17 -19 28 0
-17 -18 28 0
26 27 28 -29 0
26 27 -28 29 0
26 -27 28 29 0
26 -27 -28 -29 0
-26 27 28 29 0
-26 27 -28 -29 0
-26 -27 28 -29 0
-26 -27 -28 29 0
15 20 -30 0
15 21 -30 0
-20 -21 30 0
20 21 -30 0
-15 -21 30 0
-15 -20 30 0
24 29 30 -31 0
24 29 -30 31 0
24 -29 30 31 0
24 -29 -30 -31 0
-24 29 30 31 0
-24 29 -30 -31 0
-24 -29 30 -31 0
-24 -29 -30 31 0
-31 -32 0
31 32 0
-23 -32 33 0
23 -33 0
32 -33 0
-35 -36 0
35 36 0
-37 0
26 27 -38 0
26 28 -38 0
-27 -28 38 0
27 28 -38 0
-26 -28 38 0
-26 -27 38 0
36 37 38 -39 0
36 37 -38 39 0
36 -37 38 39 0
36 -37 -38 -39 0
-36 37 38 39 0
-36 37 -38 -39 0
-36 -37 38 -39 0
-36 -37 -38 39 0
24 29 -40 0
24 30 -40 0
-29 -30 40 0
29 30 -40 0
-24 -30 40 0
-24 -29 40 0
34 39 40 -41 0
34 39 -40 41 0
34 -39 40 41 0
34 -39 -40 -41 0
-34 39 40 41 0
-34 39 -40 -41 0
-34 -39 40 -41 0
-34 -39 -40 41 0
-33 -41 42 0
33 -42 0
41 -42 0
-44 -45 0
44 45 0
-46 0
36 37 -47 0
36 38 -47 0
-37 -38 47 0
37 38 -47 0
-36 -38 47 0
-36 -37 47 0
45 46 47 -48 0
45 46 -47 48 0
45 -46 47 48 0
45 -46 -47 -48 0
-45 46 47 48 0
-45 46 -47 -48 0
-45 -46 47 -48 0
-45 -46 -47 48 0
34 39 -49 0
34 40 -49 0
-39 -40 49 0
39 40 -49 0
-34 -40 49 0
-34 -39 49 0
43 48 49 -50 0
43 48 -49 50 0
43 -48 49 50 0
43 -48 -49 -50 0
-43 48 49 50 0
-43 48 -49 -50 0
-43 -48 49 -50 0
-43 -48 -49 50 0
-42 -50 51 0
42 -51 0
50 -51 0
-53 -54 0
53 54 0
-55 0
45 46 -56 0
45 47 -56 0
-46 -47 56 0
46 47 -56 0
-45 -47 56 0
-45 -46 56 0
54 55 56 -57 0
54 55 -56 57 0
54 -55 56 57 0
54 -55 -56 -57 0
-54 55 56 57 0
-54 55 -56 -57 0
-54 -55 56 -57 0
-54 -55 -56 57 0
43 48 -58 0
43 49 -58 0
-48 -49 58 0
48 49 -58 0
-43 -49 58 0
-43 -48 58 0
52 57 58 -59 0
52 57 -58 59 0
52 -57 58 59 0
52 -57 -58 -59 0
-52 57 58 59 0
-52 57 -58 -59 0
-52 -57 58 -59 0
-52 -57 -58 59 0
-51 -59 60 0
51 -60 0
59 -60 0
-62 -63 0
62 63 0
-64 0
54 55 -65 0
54 56 -65 0
-55 -56 65 0
55 56 -65 0
-54 -56 65 0
-54 -55 65 0
63 64 65 -66 0
63 64 -65 66 0
63 -64 65 66 0
63 -64 -65 -66 0
-63 64 65 66 0
-63 64 -65 -66 0
-63 -64 65 -66 0
-63 -64 -65 66 0
52 57 -67 0
52 58 -67 0
-57 -58 67 0
57 58 -67 0
-52 -58 67 0
-52 -57 67 0
61 66 67 -68 0
61 66 -67 68 0
61 -66 67 68 0
61 -66 -67 -68 0
-61 66 67 68 0
-61 66 -67 -68 0
-61 -66 67 -68 0
-61 -66 -67 68 0
-68 -69 0
68 69 0
-60 -69 70 0
60 -70 0
69 -70 0
-72 -73 0
72 73 0
-74 0
63 64 -75 0
63 65 -75 0
-64 -65 75 0
64 65 -75 0
-63 -65 75 0
-63 -64 75 0
73 74 75 -76 0
73 74 -75 76 0
73 -74 75 76 0
73 -74 -75 -76 0
-73 74 75 76 0
-73 74 -75 -76 0
-73 -74 75 -76 0
-73 -74 -75 76 0
61 66 -77 0
61 67 -77 0
-66 -67 77 0
66 67 -77 0
-61 -67 77 0
-61 -66 77 0
71 76 77 -78 0
71 76 -77 78 0
71 -76 77 78 0
71 -76 -77 -78 0
-71 76 77 78 0
-71 76 -77 -78 0
-71 -76 77 -78 0
-71 -76 -77 78 0
-78 -79 0
78 79 0
-70 -79 80 0
70 -80 0
79 -80 0
-82 -83 0
82 83 0
-84 0
73 74 -85 0
73 75 -85 0
-74 -75 85 0
74 75 -85 0
-73 -75 85 0
-73 -74 85 0
83 84 85 -86 0
83 84 -85 86 0
83 -84 85 86 0
83 -84 -85 -86 0
-83 84 85 86 0
-83 84 -85 -86 0
-83 -84 85 -86 0
-83 -84 -85 86 0
71 76 -87 0
71 77 -87 0
-76 -77 87 0
76 77 -87 0
-71 -77 87 0
-71 -76 87 0
81 86 87 -88 0
81 86 -87 88 0
81 -86 87 88 0
81 -86 -87 -88 0
-81 86 87 88 0
-81 86 -87 -88 0
-81 -86 87 -88 0
-81 -86 -87 88 0
-88 -89 0
88 89 0
-80 -89 90 0
80 -90 0
89 -90 0
-92 -93 0
92 93 0
-94 0
83 84 -95 0
83 85 -95 0
-84 -85 95 0
84 85 -95 0
-83 -85 95 0
-83 -84 95 0
93 94 95 -96 0
93 94 -95 96 0
93 -94 95 96 0
93 -94 -95 -96 0
-93 94 95 96 0
-93 94 -95 -96 0
-93 -94 95 -96 0
-93 -94 -95 96 0
81 86 -97 0
81 87 -97 0
-86 -87 97 0
86 87 -97 0
-81 -87 97 0
-81 -86 97 0
91 96 97 -98 0
91 96 -97 98 0
91 -96 97 98 0
91 -96 -97 -98 0
-91 96 97 98 0
-91 96 -97 -98 0
-91 -96 97 -98 0
-91 -96 -97 98 0
-98 -99 0
98 99 0
-90 -99 100 0
90 -100 0
99 -100 0
-102 -103 0
102 103 0
-104 0
93 94 -105 0
93 95 -105 0
-94 -95 105 0
94 95 -105 0
-93 -95 105 0
-93 -94 105 0
103 104 105 -106 0
103 104 -105 106 0
103 -104 105 106 0
103 -104 -105 -106 0
-103 104 105 106 0
-103 104 -105 -106 0
-103 -104 105 -106 0
-103 -104 -105 106 0
91 96 -107 0
91 97 -107 0
-96 -97 107 0
96 97 -107 0
-91 -97 107 0
-91 -96 107 0
101 106 107 -108 0
101 106 -107 108 0
101 -106 107 108 0
101 -106 -107 -108 0
-101 106 107 108 0
-101 106 -107 -108 0
-101 -106 107 -108 0
-101 -106 -107 108 0
-108 -109 0
108 109 0
-100 -109 110 0
100 -110 0
109 -110 0
-112 -113 0
112 113 0
-114 0
103 104 -115 0
103 105 -115 0
-104 -105 115 0
104 105 -115 0
-103 -105 115 0
-103 -104 115 0
113 114 115 -116 0
113 114 -115 116 0
113 -114 115 116 0
113 -114 -115 -116 0
-113 114 115 116 0
-113 114 -115 -116 0
-113 -114 115 -116 0
-113 -114 -115 116 0
101 106 -117 0
101 107 -117 0
-106 -107 117 0
106 107 -117 0
-101 -107 117 0
-101 -106 117 0
111 116 117 -118 0
111 116 -117 118 0
111 -116 117 118 0
111 -116 -117 -118 0
-111 116 117 118 0
-111 116 -117 -118 0
-111 -116 117 -118 0
-111 -116 -117 118 0
-118 -119 0
118 119 0
-110 -119 120 0
110 -120 0
119 -120 0
-122 -123 0
122 123 0
-124 0
113 114 -125 0
113 115 -125 0
-114 -115 125 0
114 115 -125 0
-113 -115 125 0
-113 -114 125 0
123 124 125 -126 0
123 124 -125 126 0
123 -124 125 126 0
123 -124 -125 -126 0
-123 124 125 126 0
-123 124 -125 -126 0
-123 -124 125 -126 0
-123 -124 -125 126 0
111 116 -127 0
111 117 -127 0
-116 -117 127 0
116 117 -127 0
-111 -117 127 0
-111 -116 127 0
121 126 127 -128 0
121 126 -127 128 0
121 -126 127 128 0
121 -126 -127 -128 0
-121 126 127 128 0
-121 126 -127 -128 0
-121 -126 127 -128 0
-121 -126 -127 128 0
-128 -129 0
128 129 0
-120 -129 130 0
120 -130 0
129 -130 0
-132 -133 0
132 133 0
-134 0
123 124 -135 0
123 125 -135 0
-124 -125 135 0
124 125 -135 0
-123 -125 135 0
-123 -124 135 0
133 134 135 -136 0
133 134 -135 136 0
133 -134 135 136 0
133 -134 -135 -136 0
-133 134 135 136 0
-133 134 -135 -136 0
-133 -134 135 -136 0
-133 -134 -135 136 0
121 126 -137 0
121 127 -137 0
-126 -127 137 0
126 127 -137 0
-121 -127 137 0
-121 -126 137 0
131 136 137 -138 0
131 136 -137 138 0
131 -136 137 138 0
131 -136 -137 -138 0
-131 136 137 138 0
-131 136 -137 -138 0
-131 -136 137 -138 0
-131 -136 -137 138 0
-138 -139 0
138 139 0
-130 -139 140 0
130 -140 0
139 -140 0
-142 -143 0
142 143 0
-144 0
133 134 -145 0
133 135 -145 0
-134 -135 145 0
134 135 -145 0
-133 -135 145 0
-133 -134 145 0
143 144 145 -146 0
143 144 -145 146 0
143 -144 145 146 0
143 -144 -145 -146 0
-143 144 145 146 0
-143 144 -145 -146 0
-143 -144 145 -146 0
-143 -144 -145 146 0
131 136 -147 0
131 137 -147 0
-136 -137 147 0
136 137 -147 0
-131 -137 147 0
-131 -136 147 0
141 146 147 -148 0
141 146 -147 148 0
141 -146 147 148 0
141 -146 -147 -148 0
-141 146 147 148 0
-141 146 -147 -148 0
-141 -146 147 -148 0
-141 -146 -147 148 0
-148 -149 0
148 149 0
-140 -149 150 0
140 -150 0
149 -150 0
-152 -153 0
152 153 0
-154 0
143 144 -155 0
143 145 -155 0
-144 -145 155 0
144 145 -155 0
-143 -145 155 0
-143 -144 155 0
153 154 155 -156 0
153 154 -155 156 0
153 -154 155 156 0
153 -154 -155 -156 0
-153 154 155 156 0
-153 154 -155 -156 0
-153 -154 155 -156 0
-153 -154 -155 156 0
141 146 -157 0
141 147 -157 0
-146 -147 157 0
146 147 -157 0
-141 -147 157 0
-141 -146 157 0
151 156 157 -158 0
151 156 -157 158 0
151 -156 157 158 0
151 -156 -157 -158 0
-151 156 157 158 0
-151 156 -157 -158 0
-151 -156 157 -158 0
-151 -156 -157 158 0
-158 -159 0
158 159 0
-150 -159 160 0
150 -160 0
159 -160 0
-162 -163 0
162 163 0
-164 0
153 154 -165 0
153 155 -165 0
-154 -155 165 0
154 155 -165 0
-153 -155 165 0
-153 -154 165 0
163 164 165 -166 0
163 164 -165 166 0
163 -164 165 166 0
163 -164 -165 -166 0
-163 164 165 166 0
-163 164 -165 -166 0
-163 -164 165 -166 0
-163 -164 -165 166 0
151 156 -167 0
151 157 -167 0
-156 -157 167 0
156 157 -167 0
-151 -157 167 0
-151 -156 167 0
161 166 167 -168 0
161 166 -167 168 0
161 -166 167 168 0
161 -166 -167 -168 0
-161 166 167 168 0
-161 166 -167 -168 0
-161 -166 167 -168 0
-161 -166 -167 168 0
-168 -169 0
168 169 0
-160 -169 170 0
160 -170 0
169 -170 0
-172 -173 0
172 173 0
-174 0
163 164 -175 0
163 165 -175 0
-164 -165 175 0
164 165 -175 0
-163 -165 175 0
-163 -164 175 0
173 174 175 -176 0
173 174 -175 176 0
173 -174 175 176 0
173 -174 -175 -176 0
-173 174 175 176 0
-173 174 -175 -176 0
-173 -174 175 -176 0
-173 -174 -175 176 0
161 166 -177 0
161 167 -177 0
-166 -167 177 0
166 167 -177 0
-161 -167 177 0
-161 -166 177 0
171 176 177 -178 0
171 176 -177 178 0
171 -176 177 178 0
171 -176 -177 -178 0
-171 176 177 178 0
-171 176 -177 -178 0
-171 -176 177 -178 0
-171 -176 -177 178 0
-178 -179 0
178 179 0
-170 -179 180 0
170 -180 0
179 -180 0
-182 -183 0
182 183 0
-184 0
173 174 -185 0
173 175 -185 0
-174 -175 185 0
174 175 -185 0
-173 -175 185 0
-173 -174 185 0
183 184 185 -186 0
183 184 -185 186 0
183 -184 185 186 0
183 -184 -185 -186 0
-183 184 185 186 0
-183 184 -185 -186 0
-183 -184 185 -186 0
-183 -184 -185 186 0
171 176 -187 0
171 177 -187 0
-176 -177 187 0
176 177 -187 0
-171 -177 187 0
-171 -176 187 0
181 186 187 -188 0
181 186 -187 188 0
181 -186 187 188 0
181 -186 -187 -188 0
-181 186 187 188 0
-181 186 -187 -188 0
-181 -186 187 -188 0
-181 -186 -187 188 0
-188 -189 0
188 189 0
-180 -189 190 0
180 -190 0
189 -190 0
-192 -193 0
192 193 0
-194 0
183 184 -195 0
183 185 -195 0
-184 -185 195 0
184 185 -195 0
-183 -185 195 0
-183 -184 195 0
193 194 195 -196 0
193 194 -195 196 0
193 -194 195 196 0
193 -194 -195 -196 0
-193 194 195 196 0
-193 194 -195 -196 0
-193 -194 195 -196 0
-193 -194 -195 196 0
181 186 -197 0
181 187 -197 0
-186 -187 197 0
186 187 -197 0
-181 -187 197 0
-181 -186 197 0
191 196 197 -198 0
191 196 -197 198 0
191 -196 197 198 0
191 -196 -197 -198 0
-191 196 197 198 0
-191 196 -197 -198 0
-191 -196 197 -198 0
-191 -196 -197 198 0
-198 -199 0
198 199 0
-190 -199 200 0
190 -200 0
199 -200 0
-202 -203 0
202 203 0
-204 0
193 194 -205 0
193 195 -205 0
-194 -195 205 0
194 195 -205 0
-193 -195 205 0
-193 -194 205 0
203 204 205 -206 0
203 204 -205 206 0
203 -204 205 206 0
203 -204 -205 -206 0
-203 204 205 206 0
-203 204 -205 -206 0
-203 -204 205 -206 0
-203 -204 -205 206 0
191 196 -207 0
191 197 -207 0
-196 -197 207 0
196 197 -207 0
-191 -197 207 0
-191 -196 207 0
201 206 207 -208 0
201 206 -207 208 0
201 -206 207 208 0
201 -206 -207 -208 0
-201 206 207 208 0
-201 206 -207 -208 0
-201 -206 207 -208 0
-201 -206 -207 208 0
-208 -209 0
208 209 0
-200 -209 210 0
200 -210 0
209 -210 0
-212 -213 0
212 213 0
-214 0
203 204 -215 0
203 205 -215 0
-204 -205 215 0
204 205 -215 0
-203 -205 215 0
-203 -204 215 0
213 214 215 -216 0
213 214 -215 216 0
213 -214 215 216 0
213 -214 -215 -216 0
-213 214 215 216 0
-213 214 -215 -216 0
-213 -214 215 -216 0
-213 -214 -215 216 0
201 206 -217 0
201 207 -217 0
-206 -207 217 0
206 207 -217 0
-201 -207 217 0
-201 -206 217 0
211 216 217 -218 0
211 216 -217 218 0
211 -216 217 218 0
211 -216 -217 -218 0
-211 216 217 218 0
-211 216 -217 -218 0
-211 -216 217 -218 0
-211 -216 -217 218 0
-218 -219 0
218 219 0
-210 -219 220 0
210 -220 0
219 -220 0
-222 -223 0
222 223 0
-224 0
213 214 -225 0
213 215 -225 0
-214 -215 225 0
214 215 -225 0
-213 -215 225 0
-213 -214 225 0
223 224 225 -226 0
223 224 -225 226 0
223 -224 225 226 0
223 -224 -225 -226 0
-223 224 225 226 0
-223 224 -225 -226 0
-223 -224 225 -226 0
-223 -224 -225 226 0
211 216 -227 0
211 217 -227 0
-216 -217 227 0
216 217 -227 0
-211 -217 227 0
-211 -216 227 0
221 226 227 -228 0
221 226 -227 228 0
221 -226 227 228 0
221 -226 -227 -228 0
-221 226 227 228 0
-221 226 -227 -228 0
-221 -226 227 -228 0
-221 -226 -227 228 0
-228 -229 0
228 229 0
-220 -229 230 0
220 -230 0
229 -230 0
-232 -233 0
232 233 0
-234 0
223 224 -235 0
223 225 -235 0
-224 -225 235 0
224 225 -235 0
-223 -225 235 0
-223 -224 235 0
233 234 235 -236 0
233 234 -235 236 0
233 -234 235 236 0
233 -234 -235 -236 0
-233 234 235 236 0
-233 234 -235 -236 0
-233 -234 235 -236 0
-233 -234 -235 236 0
221 226 -237 0
221 227 -237 0
-226 -227 237 0
226 227 -237 0
-221 -227 237 0
-221 -226 237 0
231 236 237 -238 0
231 236 -237 238 0
231 -236 237 238 0
231 -236 -237 -238 0
-231 236 237 238 0
-231 236 -237 -238 0
-231 -236 237 -238 0
-231 -236 -237 238 0
-238 -239 0
238 239 0
-230 -239 240 0
230 -240 0
239 -240 0
-242 -243 0
242 243 0
-244 0
233 234 -245 0
233 235 -245 0
-234 -235 245 0
234 235 -245 0
-233 -235 245 0
-233 -234 245 0
243 244 245 -246 0
243 244 -245 246 0
243 -244 245 246 0
243 -244 -245 -246 0
-243 244 245 246 0
-243 244 -245 -246 0
-243 -244 245 -246 0
-243 -244 -245 246 0
231 236 -247 0
231 237 -247 0
-236 -237 247 0
236 237 -247 0
-231 -237 247 0
-231 -236 247 0
241 246 247 -248 0
241 246 -247 248 0
241 -246 247 248 0
241 -246 -247 -248 0
-241 246 247 248 0
-241 246 -247 -248 0
-241 -246 247 -248 0
-241 -246 -247 248 0
-248 -249 0
248 249 0
-240 -249 250 0
240 -250 0
249 -250 0
-252 -253 0
252 253 0
-254 0
243 244 -255 0
243 245 -255 0
-244 -245 255 0
244 245 -255 0
-243 -245 255 0
-243 -244 255 0
253 254 255 -256 0
253 254 -255 256 0
253 -254 255 256 0
253 -254 -255 -256 0
-253 254 255 256 0
-253 254 -255 -256 0
-253 -254 255 -256 0
-253 -254 -255 256 0
241 246 -257 0
241 247 -257 0
-246 -247 257 0
246 247 -257 0
-241 -247 257 0
-241 -246 257 0
251 256 257 -258 0
251 256 -257 258 0
251 -256 257 258 0
251 -256 -257 -258 0
-251 256 257 258 0
-251 256 -257 -258 0
-251 -256 257 -258 0
-251 -256 -257 258 0
-258 -259 0
258 259 0
-250 -259 260 0
250 -260 0
259 -260 0
-262 -263 0
262 263 0
-264 0
253 254 -265 0
253 255 -265 0
-254 -255 265 0
254 255 -265 0
-253 -255 265 0
-253 -254 265 0
263 264 265 -266 0
263 264 -265 266 0
263 -264 265 266 0
263 -264 -265 -266 0
-263 264 265 266 0
-263 264 -265 -266 0
-263 -264 265 -266 0
-263 -264 -265 266 0
251 256 -267 0
251 257 -267 0
-256 -257 267 0
256 257 -267 0
-251 -257 267 0
-251 -256 267 0
261 266 267 -268 0
261 266 -267 268 0
261 -266 267 268 0
261 -266 -267 -268 0
-261 266 267 268 0
-261 266 -267 -268 0
-261 -266 267 -268 0
-261 -266 -267 268 0
-268 -269 0
268 269 0
-260 -269 270 0
260 -270 0
269 -270 0
-272 -273 0
272 273 0
-274 0
263 264 -275 0
263 265 -275 0
-264 -265 275 0
264 265 -275 0
-263 -265 275 0
-263 -264 275 0
273 274 275 -276 0
273 274 -275 276 0
273 -274 275 276 0
273 -274 -275 -276 0
-273 274 275 276 0
-273 274 -275 -276 0
-273 -274 275 -276 0
-273 -274 -275 276 0
261 266 -277 0
261 267 -277 0
-266 -267 277 0
266 267 -277 0
-261 -267 277 0
-261 -266 277 0
271 276 277 -278 0
271 276 -277 278 0
271 -276 277 278 0
271 -276 -277 -278 0
-271 276 277 278 0
-271 276 -277 -278 0
-271 -276 277 -278 0
-271 -276 -277 278 0
-278 -279 0
278 279 0
-270 -279 280 0
270 -280 0
279 -280 0
-282 -283 0
282 283 0
-284 0
273 274 -285 0
273 275 -285 0
-274 -275 285 0
274 275 -285 0
-273 -275 285 0
-273 -274 285 0
283 284 285 -286 0
283 284 -285 286 0
283 -284 285 286 0
283 -284 -285 -286 0
-283 284 285 286 0
-283 284 -285 -286 0
-283 -284 285 -286 0
-283 -284 -285 286 0
271 276 -287 0
271 277 -287 0
-276 -277 287 0
276 277 -287 0
-271 -277 287 0
-271 -276 287 0
281 286 287 -288 0
281 286 -287 288 0
281 -286 287 288 0
281 -286 -287 -288 0
-281 286 287 288 0
-281 286 -287 -288 0
-281 -286 287 -288 0
-281 -286 -287 288 0
-288 -289 0
288 289 0
-280 -289 290 0
280 -290 0
289 -290 0
-292 -293 0
292 293 0
-294 0
283 284 -295 0
283 285 -295 0
-284 -285 295 0
284 285 -295 0
-283 -285 295 0
-283 -284 295 0
293 294 295 -296 0
293 294 -295 296 0
293 -294 295 296 0
293 -294 -295 -296 0
-293 294 295 296 0
-293 294 -295 -296 0
-293 -294 295 -296 0
-293 -294 -295 296 0
281 286 -297 0
281 287 -297 0
-286 -287 297 0
286 287 -297 0
-281 -287 297 0
-281 -286 297 0
291 296 297 -298 0
291 296 -297 298 0
291 -296 297 298 0
291 -296 -297 -298 0
-291 296 297 298 0
-291 296 -297 -298 0
-291 -296 297 -298 0
-291 -296 -297 298 0
-298 -299 0
298 299 0
-290 -299 300 0
290 -300 0
299 -300 0
-302 -303 0
302 303 0
-304 0
293 294 -305 0
293 295 -305 0
-294 -295 305 0
294 295 -305 0
-293 -295 305 0
-293 -294 305 0
303 304 305 -306 0
303 304 -305 306 0
303 -304 305 306 0
303 -304 -305 -306 0
-303 304 305 306 0
-303 304 -305 -306 0
-303 -304 305 -306 0
-303 -304 -305 306 0
291 296 -307 0
291 297 -307 0
-296 -297 307 0
296 297 -307 0
-291 -297 307 0
-291 -296 307 0
301 306 307 -308 0
301 306 -307 308 0
301 -306 307 308 0
301 -306 -307 -308 0
-301 306 307 308 0
-301 306 -307 -308 0
-301 -306 307 -308 0
-301 -306 -307 308 0
-308 -309 0
308 309 0
-300 -309 310 0
300 -310 0
309 -310 0
-312 -313 0
312 313 0
-314 0
303 304 -315 0
303 305 -315 0
-304 -305 315 0
304 305 -315 0
-303 -305 315 0
-303 -304 315 0
313 314 315 -316 0
313 314 -315 316 0
313 -314 315 316 0
313 -314 -315 -316 0
-313 314 315 316 0
-313 314 -315 -316 0
-313 -314 315 -316 0
-313 -314 -315 316 0
301 306 -317 0
301 307 -317 0
-306 -307 317 0
306 307 -317 0
-301 -307 317 0
-301 -306 317 0
311 316 317 -318 0
311 316 -317 318 0
311 -316 317 318 0
311 -316 -317 -318 0
-311 316 317 318 0
-311 316 -317 -318 0
-311 -316 317 -318 0
-311 -316 -317 318 0
-318 -319 0
318 319 0
-310 -319 320 0
310 -320 0
319 -320 0
-322 -323 0
322 323 0
-324 0
313 314 -325 0
313 315 -325 0
-314 -315 325 0
314 315 -325 0
-313 -315 325 0
-313 -314 325 0
323 324 325 -326 0
323 324 -325 326 0
323 -324 325 326 0
323 -324 -325 -326 0
-323 324 325 326 0
-323 324 -325 -326 0
-323 -324 325 -326 0
-323 -324 -325 326 0
311 316 -327 0
311 317 -327 0
-316 -317 327 0
316 317 -327 0
-311 -317 327 0
-311 -316 327 0
321 326 327 -328 0
321 326 -327 328 0
321 -326 327 328 0
321 -326 -327 -328 0
-321 326 327 328 0
-321 326 -327 -328 0
-321 -326 327 -328 0
-321 -326 -327 328 0
-328 -329 0
328 329 0
-320 -329 330 0
320 -330 0
329 -330 0
-332 -333 0
332 333 0
-334 0
323 324 -335 0
323 325 -335 0
-324 -325 335 0
324 325 -335 0
-323 -325 335 0
-323 -324 335 0
333 334 335 -336 0
333 334 -335 336 0
333 -334 335 336 0
333 -334 -335 -336 0
-333 334 335 336 0
-333 334 -335 -336 0
-333 -334 335 -336 0
-333 -334 -335 336 0
321 326 -337 0
321 327 -337 0
-326 -327 337 0
326 327 -337 0
-321 -327 337 0
-321 -326 337 0
331 336 337 -338 0
331 336 -337 338 0
331 -336 337 338 0
331 -336 -337 -338 0
-331 336 337 338 0
-331 336 -337 -338 0
-331 -336 337 -338 0
-331 -336 -337 338 0
-338 -339 0
338 339 0
-330 -339 340 0
330 -340 0
339 -340 0
-342 -343 0
342 343 0
-344 0
333 334 -345 0
333 335 -345 0
-334 -335 345 0
334 335 -345 0
-333 -335 345 0
-333 -334 345 0
343 344 345 -346 0
343 344 -345 346 0
343 -344 345 346 0
343 -344 -345 -346 0
-343 344 345 346 0
-343 344 -345 -346 0
-343 -344 345 -346 0
-343 -344 -345 346 0
331 336 -347 0
331 337 -347 0
-336 -337 347 0
336 337 -347 0
-331 -337 347 0
-331 -336 347 0
341 346 347 -348 0
341 346 -347 348 0
341 -346 347 348 0
341 -346 -347 -348 0
-341 346 347 348 0
-341 346 -347 -348 0
-341 -346 347 -348 0
-341 -346 -347 348 0
-348 -349 0
348 349 0
-340 -349 350 0
340 -350 0
349 -350 0
-352 -353 0
352 353 0
-354 0
343 344 -355 0
343 345 -355 0
-344 -345 355 0
344 345 -355 0
-343 -345 355 0
-343 -344 355 0
353 354 355 -356 0
353 354 -355 356 0
353 -354 355 356 0
353 -354 -355 -356 0
-353 354 355 356 0
-353 354 -355 -356 0
-353 -354 355 -356 0
-353 -354 -355 356 0
341 346 -357 0
341 347 -357 0
-346 -347 357 0
346 347 -357 0
-341 -347 357 0
-341 -346 357 0
351 356 357 -358 0
351 356 -357 358 0
351 -356 357 358 0
351 -356 -357 -358 0
-351 356 357 358 0
-351 356 -357 -358 0
-351 -356 357 -358 0
-351 -356 -357 358 0
-358 -359 0
358 359 0
-350 -359 360 0
350 -360 0
359 -360 0
-362 -363 0
362 363 0
-364 0
353 354 -365 0
353 355 -365 0
-354 -355 365 0
354 355 -365 0
-353 -355 365 0
-353 -354 365 0
363 364 365 -366 0
363 364 -365 366 0
363 -364 365 366 0
363 -364 -365 -366 0
-363 364 365 366 0
-363 364 -365 -366 0
-363 -364 365 -366 0
-363 -364 -365 366 0
351 356 -367 0
351 357 -367 0
-356 -357 367 0
356 357 -367 0
-351 -357 367 0
-351 -356 367 0
361 366 367 -368 0
361 366 -367 368 0
361 -366 367 368 0
361 -366 -367 -368 0
-361 366 367 368 0
-361 366 -367 -368 0
-361 -366 367 -368 0
-361 -366 -367 368 0
-368 -369 0
368 369 0
-360 -369 370 0
360 -370 0
369 -370 0
-372 -373 0
372 373 0
-374 0
363 364 -375 0
363 365 -375 0
-364 -365 375 0
364 365 -375 0
-363 -365 375 0
-363 -364 375 0
373 374 375 -376 0
373 374 -375 376 0
373 -374 375 376 0
373 -374 -375 -376 0
-373 374 375 376 0
-373 374 -375 -376 0
-373 -374 375 -376 0
-373 -374 -375 376 0
361 366 -377 0
361 367 -377 0
-366 -367 377 0
366 367 -377 0
-361 -367 377 0
-361 -366 377 0
371 376 377 -378 0
371 376 -377 378 0
371 -376 377 378 0
371 -376 -377 -378 0
-371 376 377 378 0
-371 376 -377 -378 0
-371 -376 377 -378 0
-371 -376 -377 378 0
-378 -379 0
378 379 0
-370 -379 380 0
370 -380 0
379 -380 0
-382 -383 0
382 383 0
-384 0
373 374 -385 0
373 375 -385 0
-374 -375 385 0
374 375 -385 0
-373 -375 385 0
-373 -374 385 0
383 384 385 -386 0
383 384 -385 386 0
383 -384 385 386 0
383 -384 -385 -386 0
-383 384 385 386 0
-383 384 -385 -386 0
-383 -384 385 -386 0
-383 -384 -385 386 0
371 376 -387 0
371 377 -387 0
-376 -377 387 0
376 377 -387 0
-371 -377 387 0
-371 -376 387 0
381 386 387 -388 0
381 386 -387 388 0
381 -386 387 388 0
381 -386 -387 -388 0
-381 386 387 388 0
-381 386 -387 -388 0
-381 -386 387 -388 0
-381 -386 -387 388 0
-388 -389 0
388 389 0
-380 -389 390 0
380 -390 0
389 -390 0
-392 -393 0
392 393 0
-394 0
383 384 -395 0
383 385 -395 0
-384 -385 395 0
384 385 -395 0
-383 -385 395 0
-383 -384 395 0
393 394 395 -396 0
393 394 -395 396 0
393 -394 395 396 0
393 -394 -395 -396 0
-393 394 395 396 0
-393 394 -395 -396 0
-393 -394 395 -396 0
-393 -394 -395 396 0
381 386 -397 0
381 387 -397 0
-386 -387 397 0
386 387 -397 0
-381 -387 397 0
-381 -386 397 0
391 396 397 -398 0
391 396 -397 398 0
391 -396 397 398 0
391 -396 -397 -398 0
-391 396 397 398 0
-391 396 -397 -398 0
-391 -396 397 -398 0
-391 -396 -397 398 0
-398 -399 0
398 399 0
-390 -399 400 0
390 -400 0
399 -400 0
-402 -403 0
402 403 0
-404 0
393 394 -405 0
393 395 -405 0
-394 -395 405 0
394 395 -405 0
-393 -395 405 0
-393 -394 405 0
403 404 405 -406 0
403 404 -405 406 0
403 -404 405 406 0
403 -404 -405 -406 0
-403 404 405 406 0
-403 404 -405 -406 0
-403 -404 405 -406 0
-403 -404 -405 406 0
391 396 -407 0
391 397 -407 0
-396 -397 407 0
396 397 -407 0
-391 -397 407 0
-391 -396 407 0
401 406 407 -408 0
401 406 -407 408 0
401 -406 407 408 0
401 -406 -407 -408 0
-401 406 407 408 0
-401 406 -407 -408 0
-401 -406 407 -408 0
-401 -406 -407 408 0
-408 -409 0
408 409 0
-400 -409 410 0
400 -410 0
409 -410 0
-412 -413 0
412 413 0
-414 0
403 404 -415 0
403 405 -415 0
-404 -405 415 0
404 405 -415 0
-403 -405 415 0
-403 -404 415 0
413 414 415 -416 0
413 414 -415 416 0
413 -414 415 416 0
413 -414 -415 -416 0
-413 414 415 416 0
-413 414 -415 -416 0
-413 -414 415 -416 0
-413 -414 -415 416 0
401 406 -417 0
401 407 -417 0
-406 -407 417 0
406 407 -417 0
-401 -407 417 0
-401 -406 417 0
411 416 417 -418 0
411 416 -417 418 0
411 -416 417 418 0
411 -416 -417 -418 0
-411 416 417 418 0
-411 416 -417 -418 0
-411 -416 417 -418 0
-411 -416 -417 418 0
-418 -419 0
418 419 0
-410 -419 420 0
410 -420 0
419 -420 0
-422 -423 0
422 423 0
-424 0
413 414 -425 0
413 415 -425 0
-414 -415 425 0
414 415 -425 0
-413 -415 425 0
-413 -414 425 0
423 424 425 -426 0
423 424 -425 426 0
423 -424 425 426 0
423 -424 -425 -426 0
-423 424 425 426 0
-423 424 -425 -426 0
-423 -424 425 -426 0
-423 -424 -425 426 0
411 416 -427 0
411 417 -427 0
-416 -417 427 0
416 417 -427 0
-411 -417 427 0
-411 -416 427 0
421 426 427 -428 0
421 426 -427 428 0
421 -426 427 428 0
421 -426 -427 -428 0
-421 426 427 428 0
-421 426 -427 -428 0
-421 -426 427 -428 0
-421 -426 -427 428 0
-428 -429 0
428 429 0
-420 -429 430 0
420 -430 0
429 -430 0
-432 -433 0
432 433 0
-434 0
423 424 -435 0
423 425 -435 0
-424 -425 435 0
424 425 -435 0
-423 -425 435 0
-423 -424 435 0
433 434 435 -436 0
433 434 -435 436 0
433 -434 435 436 0
433 -434 -435 -436 0
-433 434 435 436 0
-433 434 -435 -436 0
-433 -434 435 -436 0
-433 -434 -435 436 0
421 426 -437 0
421 427 -437 0
-426 -427 437 0
426 427 -437 0
-421 -427 437 0
-421 -426 437 0
431 436 437 -438 0
431 436 -437 438 0
431 -436 437 438 0
431 -436 -437 -438 0
-431 436 437 438 0
-431 436 -437 -438 0
-431 -436 437 -438 0
-431 -436 -437 438 0
-438 -439 0
438 439 0
-430 -439 440 0
430 -440 0
439 -440 0
-442 -443 0
442 443 0
-444 0
433 434 -445 0
433 435 -445 0
-434 -435 445 0
434 435 -445 0
-433 -435 445 0
-433 -434 445 0
443 444 445 -446 0
443 444 -445 446 0
443 -444 445 446 0
443 -444 -445 -446 0
-443 444 445 446 0
-443 444 -445 -446 0
-443 -444 445 -446 0
-443 -444 -445 446 0
431 436 -447 0
431 437 -447 0
-436 -437 447 0
436 437 -447 0
-431 -437 447 0
-431 -436 447 0
441 446 447 -448 0
441 446 -447 448 0
441 -446 447 448 0
441 -446 -447 -448 0
-441 446 447 448 0
-441 446 -447 -448 0
-441 -446 447 -448 0
-441 -446 -447 448 0
-448 -449 0
448 449 0
-440 -449 450 0
440 -450 0
449 -450 0
-452 -453 0
452 453 0
-454 0
443 444 -455 0
443 445 -455 0
-444 -445 455 0
444 445 -455 0
-443 -445 455 0
-443 -444 455 0
453 454 455 -456 0
453 454 -455 456 0
453 -454 455 456 0
453 -454 -455 -456 0
-453 454 455 456 0
-453 454 -455 -456 0
-453 -454 455 -456 0
-453 -454 -455 456 0
441 446 -457 0
441 447 -457 0
-446 -447 457 0
446 447 -457 0
-441 -447 457 0
-441 -446 457 0
451 456 457 -458 0
451 456 -457 458 0
451 -456 457 458 0
451 -456 -457 -458 0
-451 456 457 458 0
-451 456 -457 -458 0
-451 -456 457 -458 0
-451 -456 -457 458 0
-458 -459 0
458 459 0
-450 -459 460 0
450 -460 0
459 -460 0
-462 -463 0
462 463 0
-464 0
453 454 -465 0
453 455 -465 0
-454 -455 465 0
454 455 -465 0
-453 -455 465 0
-453 -454 465 0
463 464 465 -466 0
463 464 -465 466 0
463 -464 465 466 0
463 -464 -465 -466 0
-463 464 465 466 0
-463 464 -465 -466 0
-463 -464 465 -466 0
-463 -464 -465 466 0
451 456 -467 0
451 457 -467 0
-456 -457 467 0
456 457 -467 0
-451 -457 467 0
-451 -456 467 0
461 466 467 -468 0
461 466 -467 468 0
461 -466 467 468 0
461 -466 -467 -468 0
-461 466 467 468 0
-461 466 -467 -468 0
-461 -466 467 -468 0
-461 -466 -467 468 0
-468 -469 0
468 469 0
-460 -469 470 0
460 -470 0
469 -470 0
470 0
